; benchmark generated from python API
(set-info :status unknown)
(declare-fun DISJ_W_S1_R_S1 () Bool)
(declare-fun DISJ_W_S2_R_S1 () Bool)
(declare-fun W_S2_V5 () Bool)
(declare-fun W_S1_V4 () Bool)
(declare-fun R_S2_V3 () Bool)
(declare-fun R_S1_V1 () Bool)
(declare-fun R_S2_V4 () Bool)
(declare-fun DISJ_W_S1_R_S2 () Bool)
(declare-fun DISJ_W_S1_W_S2 () Bool)
(declare-fun DISJ_W_S2_R_S2 () Bool)
(declare-fun R_E1_V4 () Bool)
(declare-fun R_E1_V5 () Bool)
(declare-fun W_S1_V5 () Bool)
(declare-fun W_S2_V2 () Bool)
(declare-fun W_S2_V3 () Bool)
(declare-fun W_S2_V1 () Bool)
(declare-fun R_S2_V5 () Bool)
(declare-fun R_S2_V2 () Bool)
(declare-fun R_S2_V1 () Bool)
(declare-fun R_S1_V4 () Bool)
(declare-fun R_S1_V5 () Bool)
(declare-fun R_S1_V2 () Bool)
(declare-fun R_S1_V3 () Bool)
(declare-fun R_E1_V2 () Bool)
(declare-fun DISJ_W_S2_R_E1 () Bool)
(declare-fun R_E1_V3 () Bool)
(declare-fun W_S2_V4 () Bool)
(declare-fun W_S1_V3 () Bool)
(declare-fun W_S1_V2 () Bool)
(declare-fun W_S1_V1 () Bool)
(declare-fun R_E1_V1 () Bool)
(declare-fun DISJ_W_S1_R_E1 () Bool)
(assert
 (let (($x870 (not W_S2_V5)))
 (let (($x5527 (not W_S1_V4)))
 (let (($x1768 (not R_S2_V3)))
 (let (($x3651 (not R_S1_V1)))
 (let (($x4786 (not (and $x3651 $x1768 $x5527 $x870 DISJ_W_S2_R_S1 DISJ_W_S1_R_S1))))
 (let (($x3411 (not R_S2_V4)))
 (let (($x1359 (and $x1768 $x3411 $x870 DISJ_W_S2_R_S1)))
 (let (($x1787 (not $x1359)))
 (let (($x4383 (and DISJ_W_S1_R_S2 DISJ_W_S2_R_S1)))
 (let (($x4294 (not $x4383)))
 (let (($x60 (not (and $x3651 DISJ_W_S2_R_S1 DISJ_W_S1_W_S2 DISJ_W_S1_R_S1))))
 (let (($x432 (and DISJ_W_S2_R_S1 DISJ_W_S2_R_S2)))
 (let (($x536 (not $x432)))
 (let (($x2653 (not (and W_S1_V4 R_E1_V4))))
 (let (($x4738 (not (and W_S1_V5 R_E1_V5))))
 (let (($x4282 (forall ((V3_0 Int) )(forall ((V2_0 Int) )(forall ((V5_0 Int) )(forall ((V4_0 Int) )(forall ((MW_S1_V1 Bool) )(forall ((MW_S1_V3 Bool) )(forall ((MW_S1_V2 Bool) )(forall ((MW_S1_V5 Bool) )(forall ((MW_S1_V4 Bool) )(forall ((MW_S2_V1 Bool) )(forall ((MW_S2_V3 Bool) )(forall ((MW_S2_V2 Bool) )(forall ((MW_S2_V5 Bool) )(forall ((MW_S2_V4 Bool) )(forall ((S1_V1_!6074 Int) )(forall ((S1_V1_!6084 Int) )(forall ((S1_V1_!6095 Int) )(forall ((S1_V1_!6100 Int) )(forall ((S2_V5_!6082 Int) )(forall ((S2_V5_!6092 Int) )(forall ((S2_V5_!6109 Int) )(forall ((S2_V5_!6114 Int) )(forall ((S1_V3_!6075 Int) )(forall ((S1_V3_!6085 Int) )(forall ((S1_V3_!6096 Int) )(forall ((S1_V3_!6101 Int) )(forall ((S1_V2_!6076 Int) )(forall ((S1_V2_!6086 Int) )(forall ((S1_V2_!6097 Int) )(forall ((S1_V2_!6102 Int) )(forall ((E1_!6073 Int) )(forall ((E1_!6094 Int) )(forall ((E1_!6105 Int) )(forall ((S2_V4_!6083 Int) )(forall ((S2_V4_!6093 Int) )(forall ((S2_V4_!6110 Int) )(forall ((S2_V4_!6115 Int) )(forall ((S1_V5_!6077 Int) )(forall ((S1_V5_!6087 Int) )(forall ((S1_V5_!6098 Int) )(forall ((S1_V5_!6103 Int) )(forall ((S2_V1_!6079 Int) )(forall ((S2_V1_!6089 Int) )(forall ((S2_V1_!6106 Int) )(forall ((S2_V1_!6111 Int) )(forall ((S1_V4_!6078 Int) )(forall ((S1_V4_!6088 Int) )(forall ((S1_V4_!6099 Int) )(forall ((S1_V4_!6104 Int) )(forall ((S2_V2_!6081 Int) )(forall ((S2_V2_!6091 Int) )(forall ((S2_V2_!6108 Int) )(forall ((S2_V2_!6113 Int) )(forall ((S2_V3_!6080 Int) )(forall ((S2_V3_!6090 Int) )(forall ((S2_V3_!6107 Int) )(forall ((S2_V3_!6112 Int) )(let (($x1930 (= (ite MW_S2_V4 S2_V4_!6093 (ite MW_S1_V4 S1_V4_!6088 (ite MW_S2_V4 S2_V4_!6083 (ite MW_S1_V4 S1_V4_!6078 V4_0)))) (ite MW_S2_V4 S2_V4_!6115 (ite MW_S1_V4 S1_V4_!6104 V4_0)))))
 (let (($x1400 (= (ite MW_S2_V5 S2_V5_!6092 (ite MW_S1_V5 S1_V5_!6087 (ite MW_S2_V5 S2_V5_!6082 (ite MW_S1_V5 S1_V5_!6077 V5_0)))) (ite MW_S2_V5 S2_V5_!6114 (ite MW_S1_V5 S1_V5_!6103 V5_0)))))
 (let ((?x941 (ite MW_S1_V2 S1_V2_!6102 V2_0)))
 (let ((?x4821 (ite MW_S2_V2 S2_V2_!6113 ?x941)))
 (let ((?x4339 (ite MW_S1_V2 S1_V2_!6076 V2_0)))
 (let ((?x95 (ite MW_S2_V2 S2_V2_!6081 ?x4339)))
 (let ((?x742 (ite MW_S1_V2 S1_V2_!6086 ?x95)))
 (let ((?x5828 (ite MW_S2_V2 S2_V2_!6091 ?x742)))
 (let (($x3918 (= (ite MW_S2_V3 S2_V3_!6090 (ite MW_S1_V3 S1_V3_!6085 (ite MW_S2_V3 S2_V3_!6080 (ite MW_S1_V3 S1_V3_!6075 V3_0)))) (ite MW_S2_V3 S2_V3_!6112 (ite MW_S1_V3 S1_V3_!6101 V3_0)))))
 (let ((?x4336 (ite MW_S2_V1 S2_V1_!6106 E1_!6105)))
 (let ((?x1541 (+ 1 ?x4336)))
 (let ((?x2955 (ite MW_S2_V1 S2_V1_!6111 ?x1541)))
 (let ((?x1391 (ite MW_S1_V1 S1_V1_!6074 E1_!6073)))
 (let ((?x1661 (ite MW_S2_V1 S2_V1_!6079 ?x1391)))
 (let ((?x4626 (+ 1 ?x1661)))
 (let ((?x673 (ite MW_S1_V1 S1_V1_!6084 ?x4626)))
 (let ((?x3688 (ite MW_S2_V1 S2_V1_!6089 ?x673)))
 (let (($x4145 (>= (ite MW_S1_V1 S1_V1_!6100 (+ 1 (ite MW_S1_V1 S1_V1_!6095 E1_!6094))) (+ (- 1) ?x941))))
 (let (($x227 (and (not (<= V2_0 E1_!6073)) (not (<= ?x95 ?x4626)) (>= ?x3688 (+ (- 1) ?x5828)) (not (<= V2_0 E1_!6094)) (not (<= (ite MW_S1_V2 S1_V2_!6097 V2_0) (+ 1 (ite MW_S1_V1 S1_V1_!6095 E1_!6094)))) $x4145 (not (<= ?x941 E1_!6105)) (not (<= (ite MW_S2_V2 S2_V2_!6108 ?x941) ?x1541)) (>= ?x2955 (+ (- 1) ?x4821)))))
 (let (($x2158 (= S2_V3_!6112 S2_V3_!6090)))
 (let ((?x3137 (ite MW_S1_V4 S1_V4_!6078 V4_0)))
 (let ((?x1566 (ite MW_S2_V4 S2_V4_!6083 ?x3137)))
 (let ((?x1053 (ite MW_S1_V4 S1_V4_!6088 ?x1566)))
 (let ((?x287 (ite MW_S1_V4 S1_V4_!6104 V4_0)))
 (let ((?x2153 (ite MW_S2_V4 S2_V4_!6110 ?x287)))
 (let (($x3411 (not R_S2_V4)))
 (let ((?x803 (ite MW_S1_V5 S1_V5_!6077 V5_0)))
 (let ((?x4077 (ite MW_S2_V5 S2_V5_!6082 ?x803)))
 (let ((?x1663 (ite MW_S1_V5 S1_V5_!6087 ?x4077)))
 (let ((?x2015 (ite MW_S1_V5 S1_V5_!6103 V5_0)))
 (let ((?x4277 (ite MW_S2_V5 S2_V5_!6109 ?x2015)))
 (let (($x2427 (not R_S2_V5)))
 (let ((?x3340 (ite MW_S1_V3 S1_V3_!6075 V3_0)))
 (let ((?x3787 (ite MW_S2_V3 S2_V3_!6080 ?x3340)))
 (let ((?x3502 (ite MW_S1_V3 S1_V3_!6085 ?x3787)))
 (let ((?x1157 (ite MW_S1_V3 S1_V3_!6101 V3_0)))
 (let ((?x595 (ite MW_S2_V3 S2_V3_!6107 ?x1157)))
 (let (($x1768 (not R_S2_V3)))
 (let (($x1859 (and (or (not R_S2_V1) (= ?x4336 (+ (- 1) ?x673))) (or $x1768 (= ?x595 ?x3502)) (or (not R_S2_V2) (= (ite MW_S2_V2 S2_V2_!6108 ?x941) ?x742)) (or $x2427 (= ?x4277 ?x1663)) (or $x3411 (= ?x2153 ?x1053)))))
 (let (($x2596 (not $x1859)))
 (let (($x438 (= S2_V3_!6112 S2_V3_!6080)))
 (let (($x490 (and (or (not R_S2_V1) (= ?x4336 (+ (- 1) ?x1391))) (or $x1768 (= ?x595 ?x3340)) (or (not R_S2_V2) (= (ite MW_S2_V2 S2_V2_!6108 ?x941) ?x4339)) (or $x2427 (= ?x4277 ?x803)) (or $x3411 (= ?x2153 ?x3137)))))
 (let (($x4609 (not $x490)))
 (let (($x530 (= S2_V3_!6107 S2_V3_!6112)))
 (let (($x5331 (and (or (not R_S2_V1) (= E1_!6105 ?x1541)) (or $x1768 (= ?x1157 ?x595)) (or (not R_S2_V2) (= ?x941 (ite MW_S2_V2 S2_V2_!6108 ?x941))) (or $x2427 (= ?x2015 ?x4277)) (or $x3411 (= ?x287 ?x2153)))))
 (let (($x3185 (= S2_V3_!6107 S2_V3_!6090)))
 (let (($x3439 (and (or (not R_S2_V1) (= E1_!6105 ?x673)) (or $x1768 (= ?x1157 ?x3502)) (or (not R_S2_V2) (= ?x941 ?x742)) (or $x2427 (= ?x2015 ?x1663)) (or $x3411 (= ?x287 ?x1053)))))
 (let (($x2170 (not $x3439)))
 (let (($x2556 (= S2_V3_!6107 S2_V3_!6080)))
 (let (($x4504 (and (or (not R_S2_V1) (= E1_!6105 ?x1391)) (or $x1768 (= ?x1157 ?x3340)) (or (not R_S2_V2) (= ?x941 ?x4339)) (or $x2427 (= ?x2015 ?x803)) (or $x3411 (= ?x287 ?x3137)))))
 (let (($x1949 (= S2_V3_!6090 S2_V3_!6080)))
 (let (($x5219 (and (or (not R_S2_V1) (= ?x673 ?x1391)) (or $x1768 (= ?x3502 ?x3340)) (or (not R_S2_V2) (= ?x742 ?x4339)) (or $x2427 (= ?x1663 ?x803)) (or $x3411 (= ?x1053 ?x3137)))))
 (let (($x2601 (not $x5219)))
 (let (($x3637 (= S2_V2_!6113 S2_V2_!6108)))
 (let (($x511 (and (or (not R_S2_V1) (= ?x4336 (+ (- 1) E1_!6105))) (or $x1768 (= ?x595 ?x1157)) (or (not R_S2_V2) (= (ite MW_S2_V2 S2_V2_!6108 ?x941) ?x941)) (or $x2427 (= ?x4277 ?x2015)) (or $x3411 (= ?x2153 ?x287)))))
 (let (($x5576 (not $x511)))
 (let (($x1649 (= S2_V2_!6091 S2_V2_!6108)))
 (let (($x4068 (and (or (not R_S2_V1) (= ?x673 E1_!6105)) (or $x1768 (= ?x3502 ?x1157)) (or (not R_S2_V2) (= ?x742 ?x941)) (or $x2427 (= ?x1663 ?x2015)) (or $x3411 (= ?x1053 ?x287)))))
 (let (($x5049 (not $x4068)))
 (let (($x2002 (= S2_V2_!6081 S2_V2_!6113)))
 (let (($x2932 (and (or (not R_S2_V1) (= ?x1391 ?x1541)) (or $x1768 (= ?x3340 ?x595)) (or (not R_S2_V2) (= ?x4339 (ite MW_S2_V2 S2_V2_!6108 ?x941))) (or $x2427 (= ?x803 ?x4277)) (or $x3411 (= ?x3137 ?x2153)))))
 (let (($x3271 (not $x2932)))
 (let (($x4958 (= S2_V2_!6081 S2_V2_!6108)))
 (let (($x5120 (and (or (not R_S2_V1) (= ?x1391 E1_!6105)) (or $x1768 (= ?x3340 ?x1157)) (or (not R_S2_V2) (= ?x4339 ?x941)) (or $x2427 (= ?x803 ?x2015)) (or $x3411 (= ?x3137 ?x287)))))
 (let (($x3980 (not $x5120)))
 (let (($x4103 (= S2_V2_!6081 S2_V2_!6091)))
 (let (($x1407 (and (or (not R_S2_V1) (= ?x1391 ?x673)) (or $x1768 (= ?x3340 ?x3502)) (or (not R_S2_V2) (= ?x4339 ?x742)) (or $x2427 (= ?x803 ?x1663)) (or $x3411 (= ?x3137 ?x1053)))))
 (let (($x617 (not $x1407)))
 (let (($x1786 (= S1_V4_!6104 S1_V4_!6088)))
 (let (($x3100 (and (or (not R_S1_V1) (= (ite MW_S1_V1 S1_V1_!6095 E1_!6094) ?x1661)) (or (not R_S1_V3) (= (ite MW_S1_V3 S1_V3_!6096 V3_0) ?x3787)) (or (not R_S1_V2) (= (ite MW_S1_V2 S1_V2_!6097 V2_0) ?x95)) (or (not R_S1_V5) (= (ite MW_S1_V5 S1_V5_!6098 V5_0) ?x4077)) (or (not R_S1_V4) (= (ite MW_S1_V4 S1_V4_!6099 V4_0) ?x1566)))))
 (let (($x4807 (not $x3100)))
 (let (($x3109 (not R_S1_V4)))
 (let (($x5704 (or $x3109 (= (ite MW_S1_V4 S1_V4_!6099 V4_0) V4_0))))
 (let (($x1626 (not R_S1_V5)))
 (let (($x1276 (or $x1626 (= (ite MW_S1_V5 S1_V5_!6098 V5_0) V5_0))))
 (let (($x4263 (not R_S1_V2)))
 (let (($x1184 (or $x4263 (= (ite MW_S1_V2 S1_V2_!6097 V2_0) V2_0))))
 (let (($x3742 (not R_S1_V3)))
 (let (($x1290 (or $x3742 (= (ite MW_S1_V3 S1_V3_!6096 V3_0) V3_0))))
 (let (($x2295 (and (or (not R_S1_V1) (= (ite MW_S1_V1 S1_V1_!6095 E1_!6094) (+ (- 1) E1_!6073))) $x1290 $x1184 $x1276 $x5704)))
 (let (($x5499 (not $x2295)))
 (let (($x3596 (or $x3109 (= V4_0 (ite MW_S1_V4 S1_V4_!6099 V4_0)))))
 (let (($x2509 (or $x1626 (= V5_0 (ite MW_S1_V5 S1_V5_!6098 V5_0)))))
 (let (($x2363 (or $x4263 (= V2_0 (ite MW_S1_V2 S1_V2_!6097 V2_0)))))
 (let (($x4792 (or $x3742 (= V3_0 (ite MW_S1_V3 S1_V3_!6096 V3_0)))))
 (let (($x4125 (and (or (not R_S1_V1) (= E1_!6094 (+ 1 (ite MW_S1_V1 S1_V1_!6095 E1_!6094)))) $x4792 $x2363 $x2509 $x3596)))
 (let (($x5693 (not $x4125)))
 (let (($x2156 (= S1_V4_!6099 S1_V4_!6088)))
 (let (($x3504 (or $x3109 (= V4_0 ?x1566))))
 (let (($x1220 (or $x1626 (= V5_0 ?x4077))))
 (let (($x2271 (or $x4263 (= V2_0 ?x95))))
 (let (($x939 (or $x3742 (= V3_0 ?x3787))))
 (let (($x3606 (not (and (or (not R_S1_V1) (= E1_!6094 ?x4626)) $x939 $x2271 $x1220 $x3504))))
 (let (($x2255 (or $x3109 (= ?x1566 V4_0))))
 (let (($x5724 (or $x1626 (= ?x4077 V5_0))))
 (let (($x4676 (or $x4263 (= ?x95 V2_0))))
 (let (($x2379 (or $x3742 (= ?x3787 V3_0))))
 (let (($x2175 (and (or (not R_S1_V1) (= ?x1661 (+ (- 1) E1_!6073))) $x2379 $x4676 $x5724 $x2255)))
 (let (($x815 (not $x2175)))
 (let (($x2450 (= S2_V1_!6089 S2_V1_!6111)))
 (let (($x5785 (and (or (not R_S2_V1) (= ?x673 ?x1541)) (or $x1768 (= ?x3502 ?x595)) (or (not R_S2_V2) (= ?x742 (ite MW_S2_V2 S2_V2_!6108 ?x941))) (or $x2427 (= ?x1663 ?x4277)) (or $x3411 (= ?x1053 ?x2153)))))
 (let (($x5203 (not $x5785)))
 (let (($x788 (= S1_V5_!6103 S1_V5_!6098)))
 (let (($x510 (and (or (not R_S1_V1) (= (ite MW_S1_V1 S1_V1_!6095 E1_!6094) (+ (- 1) E1_!6094))) $x1290 $x1184 $x1276 $x5704)))
 (let (($x2904 (not $x510)))
 (let (($x2232 (or (not (and (or (not R_S1_V1) (= E1_!6073 ?x4626)) $x939 $x2271 $x1220 $x3504)) (= S1_V5_!6077 S1_V5_!6087))))
 (let (($x6051 (and (or (not R_E1_V2) (= ?x941 V2_0)) (or (not R_E1_V5) (= ?x2015 V5_0)) (or (not R_E1_V4) (= ?x287 V4_0)))))
 (let (($x4666 (= E1_!6073 E1_!6105)))
 (let (($x913 (and (or (not R_E1_V2) (= V2_0 ?x941)) (or (not R_E1_V5) (= V5_0 ?x2015)) (or (not R_E1_V4) (= V4_0 ?x287)))))
 (let (($x2659 (= E1_!6073 E1_!6094)))
 (let (($x70 (and (or (not R_S1_V1) (= ?x1661 (ite MW_S1_V1 S1_V1_!6095 E1_!6094))) (or $x3742 (= ?x3787 (ite MW_S1_V3 S1_V3_!6096 V3_0))) (or $x4263 (= ?x95 (ite MW_S1_V2 S1_V2_!6097 V2_0))) (or $x1626 (= ?x4077 (ite MW_S1_V5 S1_V5_!6098 V5_0))) (or $x3109 (= ?x1566 (ite MW_S1_V4 S1_V4_!6099 V4_0))))))
 (let (($x5001 (not $x70)))
 (let (($x492 (and (or (not R_S1_V1) (= ?x1661 (+ (- 1) E1_!6094))) $x2379 $x4676 $x5724 $x2255)))
 (let (($x5902 (not $x492)))
 (let (($x602 (and (or (not R_S1_V1) (= E1_!6073 (+ 1 (ite MW_S1_V1 S1_V1_!6095 E1_!6094)))) $x4792 $x2363 $x2509 $x3596)))
 (let (($x4673 (not $x602)))
 (let (($x1618 (and (or $x4673 (= S1_V1_!6074 S1_V1_!6100)) (or $x815 (= S1_V1_!6084 S1_V1_!6074)) (or $x5902 (= S1_V1_!6084 S1_V1_!6095)) (or $x5001 (= S1_V1_!6084 S1_V1_!6100)) (or (not (or (not R_S1_V1) (= E1_!6094 E1_!6073))) (= S1_V1_!6095 S1_V1_!6074)) (or $x5693 (= S1_V1_!6095 S1_V1_!6100)) (or $x3980 (= S2_V5_!6082 S2_V5_!6109)) (or $x3271 (= S2_V5_!6082 S2_V5_!6114)) (or $x2601 (= S2_V5_!6092 S2_V5_!6082)) (or $x5049 (= S2_V5_!6092 S2_V5_!6109)) (or $x5203 (= S2_V5_!6092 S2_V5_!6114)) (or $x5576 (= S2_V5_!6114 S2_V5_!6109)) (or (not (or (not R_S1_V1) $x2659)) (= S1_V3_!6075 S1_V3_!6096)) (or $x815 (= S1_V3_!6085 S1_V3_!6075)) (or $x5902 (= S1_V3_!6085 S1_V3_!6096)) (or $x5001 (= S1_V3_!6085 S1_V3_!6101)) (or $x5499 (= S1_V3_!6101 S1_V3_!6075)) (or $x2904 (= S1_V3_!6101 S1_V3_!6096)) (or $x4673 (= S1_V2_!6076 S1_V2_!6102)) (or $x815 (= S1_V2_!6086 S1_V2_!6076)) (or $x5902 (= S1_V2_!6086 S1_V2_!6097)) (or $x5001 (= S1_V2_!6086 S1_V2_!6102)) (or (not (or (not R_S1_V1) (= E1_!6094 E1_!6073))) (= S1_V2_!6097 S1_V2_!6076)) (or $x5693 (= S1_V2_!6097 S1_V2_!6102)) $x2659 (or (not $x913) $x4666) (or (not $x6051) (= E1_!6105 E1_!6094)) (or $x617 (= S2_V4_!6083 S2_V4_!6093)) (or $x3980 (= S2_V4_!6083 S2_V4_!6110)) (or $x2170 (= S2_V4_!6110 S2_V4_!6093)) (or $x4609 (= S2_V4_!6115 S2_V4_!6083)) (or $x2596 (= S2_V4_!6115 S2_V4_!6093)) (or $x5576 (= S2_V4_!6115 S2_V4_!6110)) $x2232 (or (not (or (not R_S1_V1) $x2659)) (= S1_V5_!6077 S1_V5_!6098)) (or $x3606 (= S1_V5_!6098 S1_V5_!6087)) (or $x5499 (= S1_V5_!6103 S1_V5_!6077)) (or $x4807 (= S1_V5_!6103 S1_V5_!6087)) (or $x2904 $x788) (or $x617 (= S2_V1_!6079 S2_V1_!6089)) (or $x3980 (= S2_V1_!6079 S2_V1_!6106)) (or $x3271 (= S2_V1_!6079 S2_V1_!6111)) (or $x5049 (= S2_V1_!6089 S2_V1_!6106)) (or $x5203 $x2450) (or $x5576 (= S2_V1_!6111 S2_V1_!6106)) (or $x815 (= S1_V4_!6088 S1_V4_!6078)) (or (not (or (not R_S1_V1) (= E1_!6094 E1_!6073))) (= S1_V4_!6099 S1_V4_!6078)) (or $x3606 $x2156) (or $x5693 (= S1_V4_!6099 S1_V4_!6104)) (or $x5499 (= S1_V4_!6104 S1_V4_!6078)) (or $x4807 $x1786) (or $x617 $x4103) (or $x3980 $x4958) (or $x3271 $x2002) (or $x5049 $x1649) (or $x2596 (= S2_V2_!6113 S2_V2_!6091)) (or $x5576 $x3637) (or $x2601 $x1949) (or (not $x4504) $x2556) (or $x2170 $x3185) (or (not $x5331) $x530) (or $x4609 $x438) (or $x2596 $x2158) (not MW_S1_V1) (not MW_S1_V2) (or (not MW_S1_V5) W_S1_V5) (or (not MW_S1_V4) W_S1_V4) (or (not MW_S2_V1) W_S2_V1) (or (not MW_S2_V3) W_S2_V3) (or (not MW_S2_V2) W_S2_V2) (or (not MW_S2_V5) W_S2_V5))))
 (or (not $x1618) (not $x227) (and (= ?x3688 ?x2955) $x3918 (= ?x5828 ?x4821) $x1400 $x1930))))))))))))))))))))))))))))))))))))))))))))))))))))))))))))))))))))))))))))))))))))))))))))))))))))))))))))))))))))))))
 )
 )
 )
 )
 )
 )
 )
 )
 )
 )
 )
 )
 )
 )
 )
 )
 )
 )
 )
 )
 )
 )
 )
 )
 )
 )
 )
 )
 )
 )
 )
 )
 )
 )
 )
 )
 )
 )
 )
 )
 )
 )
 )
 )
 )
 )
 )
 )
 )
 )
 )
 )
 )
 )
 )
 )
 ))
 (let (($x720 (not (or (and W_S2_V2 R_E1_V2) (and W_S2_V5 R_E1_V5) R_E1_V4))))
 (let (($x2836 (= DISJ_W_S2_R_E1 $x720)))
 (let (($x5938 (and W_S2_V5 R_S2_V5)))
 (let (($x498 (and W_S2_V2 R_S2_V2)))
 (let (($x5427 (and W_S2_V3 R_S2_V3)))
 (let (($x5961 (and W_S2_V1 R_S2_V1)))
 (let (($x3110 (= DISJ_W_S2_R_S2 (not (or $x5961 $x5427 $x498 $x5938 R_S2_V4)))))
 (let (($x5870 (and W_S2_V5 R_S1_V5)))
 (let (($x2102 (and W_S2_V2 R_S1_V2)))
 (let (($x2875 (and W_S2_V3 R_S1_V3)))
 (let (($x4414 (and W_S2_V1 R_S1_V1)))
 (let (($x909 (= DISJ_W_S2_R_S1 (not (or $x4414 $x2875 $x2102 $x5870 R_S1_V4)))))
 (let (($x2852 (= DISJ_W_S1_W_S2 (not (or W_S2_V3 (and W_S1_V5 W_S2_V5) W_S1_V4)))))
 (let (($x4838 (not R_E1_V3)))
 (let (($x5614 (not (or R_S2_V3 (and W_S1_V5 R_S2_V5) (and W_S1_V4 R_S2_V4)))))
 (let (($x4054 (= DISJ_W_S1_R_S2 $x5614)))
 (let (($x1493 (not (or R_S1_V3 (and W_S1_V5 R_S1_V5) (and W_S1_V4 R_S1_V4)))))
 (let (($x3930 (= DISJ_W_S1_R_S1 $x1493)))
 (let (($x2895 (not W_S2_V2)))
 (let (($x2466 (not R_S2_V1)))
 (let (($x5125 (and $x2466 $x1768 $x2895 $x870 DISJ_W_S2_R_S1)))
 (let (($x5461 (not W_S2_V3)))
 (let (($x2427 (not R_S2_V5)))
 (let (($x337 (and $x2466 $x2427 $x2895 $x5461 DISJ_W_S2_R_S1)))
 (let (($x5616 (and $x2466 $x2895 $x870 $x5461 DISJ_W_S2_R_S1)))
 (let (($x2927 (and $x2466 $x1768 $x2427 $x2895 DISJ_W_S2_R_S1)))
 (let (($x1160 (and $x2466 $x3411 $x2895 $x870 DISJ_W_S2_R_S1)))
 (let (($x2388 (and $x2466 $x2427 $x3411 $x2895 DISJ_W_S2_R_S1)))
 (let (($x2921 (and $x2466 $x3411 $x2895 $x5461 DISJ_W_S2_R_S1)))
 (let (($x3568 (and $x2466 $x1768 $x3411 $x2895 DISJ_W_S2_R_S1)))
 (let (($x1938 (and $x2427 $x5527 $x5461 DISJ_W_S2_R_S1)))
 (let (($x614 (and $x2427 $x3411 $x5461 DISJ_W_S2_R_S1)))
 (let (($x180 (and $x3411 (not W_S1_V5) $x5461 DISJ_W_S2_R_S1)))
 (let (($x5696 (and $x3411 $x870 $x5461 DISJ_W_S2_R_S1)))
 (let (($x2884 (and DISJ_W_S1_W_S2 DISJ_W_S2_R_S1)))
 (let (($x616 (and $x1768 $x5527 $x870 DISJ_W_S2_R_S1)))
 (let (($x952 (and (not W_S2_V1) $x2895)))
 (let (($x1595 (and $x2895 DISJ_W_S2_R_S2)))
 (let (($x3945 (or $x432 $x1595 $x4383 $x1359 $x952 $x616 $x2884 $x5696 $x180 $x614 $x1938 $x3568 $x2921 $x2388 $x1160 $x2927 $x5616 $x337 $x5125)))
 (let (($x2500 (and $x3651 DISJ_W_S1_R_S1)))
 (let (($x3274 (and $x2895 DISJ_W_S2_R_S1 DISJ_W_S1_R_S1)))
 (let (($x1057 (or $x3274 $x952 $x2500)))
 (let (($x2563 (not W_S1_V2)))
 (let (($x1438 (not W_S1_V1)))
 (let (($x2185 (not R_E1_V1)))
 (let (($x3570 (and DISJ_W_S1_R_E1 $x2185 $x1438 $x2563 $x1057 $x3945 W_S1_V3 W_S2_V4 $x3930 $x4054 $x4838 $x2852 $x909 $x3110 $x2836 $x4282 $x4738 $x2653)))
 (and $x3570 $x536 $x60 $x4294 $x1787 $x4786))))))))))))))))))))))))))))))))))))))))))))))))))))))))))))))))
(check-sat)
